28180 13584 9645 8613 8111 8091 8138 8078 8168 8074 8161 8275 8349 8304 8349 8210 8178 8133 8176 8176 8133 8133 8133 8133 8133 8133 8133 8133 8133 8133 8133 8133 8133 8133 8133 8133 8133 8133 8133 8133 8133 8133 8133 8133 8133 8133 8133 8133 8133 8133 8133 8133 8133 8133 8133 8133 8133 8133 8133 8133 8133 8133 8133 8133 8133 8133 8133 8133 8133 8133 8133 8133 8133 8133 8133 8133 8133 8133 8133 8133 8133 8133 8133 8133 8133 8133 8133 8133 8133 8133 8133 8133 8133 8133 8133 8133 8133 8133 8133 8133 8133 8133 8133 8133 8133 8133 8133 8133 8133 8133 8133 8133 8133 8133 8133 8133 8133 8133 8133 8133 8133 8133 8133 8133 8133 8133 8133 8133 8133 8133 8133 8133 8133 8133 8133 8133 8133 8133 8133 8133 8133 8133 8133 8133 8133 8133 8133 8133 8133 8133 8133 8133 8133 8133 8133 8133 8133 8133 8133 8133 8133 8133 8133 8133 8133 8133 8133 8133 8133 8133 8133 8133 8133 8133 8133 8133 8133 8133 8133 8133 8133 8133 8133 8133 8133 8133 8133 8133 8133 8133 8133 8133 8133 8133 8133 8133 8133 8133 8133 8133 8133 8133 8133 8133 8133 8133 8133 8133 8133 8133 8133 8133 8133 8133 8133 8133 8133 8133 8133 8133 8133 8133 8133 8133 8133 8133 8133 8133 8133 8133 8133 8133 8133 8133 8133 8133 8133 8133 8133 8133 8133 8133 8133 8133 8133 8133 8133 8133 8133 8133 8133 8133 8133 8133 8133 8133 8133 8133 8133 8133 8133 8133 8133 8133 8133 8133 8133 8133 8133 8133 8133 8133 8133 8133 8133 8133 8133 8133 8133 8133 8133 8133 8133 8133 8133 8133 8133 8133 8133 8133 8133 8133 8133 8133 8133 8133 8133 8133 8133 8133 8133 8133 8133 8133 8133 8133 8133 8133 8133 8133 8133 8133 8133 8133 8133 8133 8133 8133 8133 8133 8133 8133 8133 8133 8133 8133 8133 8133 8133 8133 8133 8133 8133 8133 8133 8133 8133 8133 8133 8133 8133 8133 8133 8133 8133 8133 8133 8133 8133 8133 8133 8133 8133 8133 8133 8133 8133 8133 8133 8133 8133 8133 8133 8133 8133 8133 8133 8133 8133 8133 8133 8133 8133 8133 8133 8133 8133 8133 8133 8133 8133 8133 8133 8133 8133 8133 8133 8133 8133 8133 8133 8133 8133 8133 8133 8133 8133 8133 8133 8133 8133 8133 8133 8133 8133 8133 8133 8133 8133 8133 8133 8133 8133 8133 8133 8133 8133 8133 8133 8133 8133 8133 8133 8133 8133 8133 8133 8133 8133 8133 8133 8133 8133 8133 8133 8133 8133 8133 8133 8133 8133 8133 8133 8133 8133 8133 8133 8133 8133 8133 8133 8133 8133 8133 8133 8133 8133 8133 8133 8133 8133 8133 8133 8133 8133 8133 8133 8133 8133 8133 8133 8133 8133 8133 8133 8133 8133 8133 8133 8133 8133 8133 8133 8133 8133 8133 8133 8133 8133 8133 8133 8133 8133 8133 8133 8133 8133 8133 8133 8133 8133 8133 8133 8133 8133 8133 8133 8133 8133 8133 8133 8133 8133 8133 8133 8133 8133 8133 8133 8133 8133 8133 8133 8133 8133 8133 8133 8133 8133 8133 8133 8133 8133 8133 8133 8133 8133 8133 8133 8133 8133 8133 8133 8133 8133 8133 8133 8133 8133 8133 8133 8133 8133 8133 8133 8133 8133 8133 8133 8133 8133 8133 8133 8133 8133 8133 8133 8133 8133 8133 8133 8133 8133 8133 8133 8133 8133 8133 8133 8133 8133 8133 8133 8133 8133 8133 8133 8133 8133 8133 8133 8133 8133 8133 8133 8133 8133 8133 8133 8133 8133 8133 8133 8133 8133 8133 8133 8133 8133 8133 8133 8133 8133 8133 8133 8133 8133 8133 8133 8133 8133 8133 8133 8133 8133 8133 8133 8133 8133 8133 8133 8133 8133 8133 8133 8133 8133 8133 8133 8133 8133 8133 8133 8133 8133 8133 8133 8133 8133 8133 8133 8133 8133 8133 8133 8133 8133 8133 8133 8133 8133 8133 8133 8133 8133 8133 8133 8133 8133 8167 8133 8133 8133 8133 8133 8133 8133 8133 8133 8133 8133 8133 8133 8133 8133 8133 8133 8133 8133 8133 8133 8133 8133 8133 8133 8133 8133 8133 8133 8133 8133 8133 8133 8133 8133 8133 8133 8133 8133 8133 8133 8133 8133 8133 8133 8133 8133 8133 8133 8133 8133 8133 8133 8133 8133 8133 8133 8133 8133 8133 8133 8133 8133 8133 8133 8133 8133 8133 8133 8133 8133 8133 8133 8133 8133 8133 8133 8133 8133 8133 8133 8133 8133 8133 8133 8133 8133 8133 8133 8133 8133 8133 8133 8133 8133 8133 8133 8133 8133 8133 8133 8133 8133 8133 8133 8133 8133 8133 8133 8133 8133 8133 8133 8133 8133 8133 8133 8133 8133 8133 8133 8133 8133 8133 8133 8133 8133 8133 8133 8133 8133 8133 8133 8133 8133 8133 8133 8133 8133 8133 8133 8133 8133 8133 8133 8133 8133 8133 8133 8133 8133 8133 8133 8133 8133 8133 8133 8133 8133 8133 8133 8133 8133 8133 8133 8133 8133 8133 8133 8133 8133 8133 8133 8133 8133 8133 8133 8133 8133 8133 8133 8133 8133 8133 8133 8133 8133 8133 8133 8133 8133 8133 8133 8133 8133 8133 8133 8133 8133 8133 8133 8133 8133 8133 8133 8133 8133 8133 8133 8133 8133 8133 8133 8133 8133 8133 8133 8133 8133 8133 8133 8133 8133 8133 8133 8133 8133 8133 8133 8133 8133 8133 8133 8133 8133 8133 8133 8133 8133 8133 8133 8133 8133 8133 8133 8133 8133 8133 8133 8133 8133 8133 8133 8133 8133 8133 8133 8133 8133 8133 8133 8133 8133 8133 8133 8133 8133 8133 8133 8133 8133 8133 8133 8133 8133 8133 8133 8133 8133 8133 8133 8133 8133 8133 8133 8133 8133 8133 8133 8133 8133 8133 8133 8133 8133 8133 8133 8133 8133 8133 8133 8133 8133 8133 8133 8133 8133 8133 8133 8133 8133 8133 8133 8133 8133 8133 8133 8133 8133 8133 8133 8133 8133 8133 8133 8133 8133 8133 8133 8133 